% demand
num_movements = 49;
loading_factor = [1800, 1950, 900, 1800, 1600, 1250, 1350, 1650, 950, 1550, 1650, 1100, 1050, 1650, 1950, 1550, 1300, 900, 950, 1100, 1600, 1700, 1450, 800, 1250, 1600, 1550, 1450, 1250, 900, 1700, 1500, 1700, 1650, 1050, 1600, 1050, 1150, 1950, 850, 1150, 2000, 1450, 1150, 800, 1250, 1800, 1550, 800];
pickup_time = [0, 0, 0, 0, 0, 0, 0, 1, 1, 1, 1, 1, 1, 1, 3, 3, 3, 3, 3, 3, 3, 4, 4, 5, 6, 6, 6, 6, 6, 6, 7, 7, 8, 8, 8, 8, 8, 8, 8, 8, 9, 10, 10, 10, 10, 10, 11, 11, 12];
delivery_time = [1, 1, 1, 1, 1, 1, 1, 2, 2, 4, 2, 2, 2, 2, 6, 7, 4, 4, 6, 6, 4, 6, 7, 6, 7, 7, 7, 7, 7, 7, 8, 8, 10, 10, 10, 10, 12, 9, 12, 10, 10, 11, 12, 13, 12, 12, 12, 12, 13];

% transporter definition
total_capacity = 11000;
num_decks = 4;
capacity = [3000, 3000, 1000, 4000];

% ways out of decks
num_ways_out = 2;
paths_out = array3d(decks, ways_out, decks, [
% ways out of deck d1
2, 4, 0, 0, 3, 4, 0, 0, 

% ways out of deck d2
4, 0, 0, 0, 0, 0, 0, 0,	

% ways out of deck d3
4, 0, 0, 0, 0, 0, 0, 0,	

% ways out of deck d4
0, 0, 0, 0,	0, 0, 0, 0,	

]);

